50
80.0
0 49 5.86 0.42
1 48 6.18 0.41
2 47 5.87 0.42
3 46 6.14 0.43
4 45 5.28 0.43
5 44 5.98 0.42
6 43 5.82 0.42
7 42 5.95 0.43
8 41 6.37 0.41
9 40 5.98 0.43
10 39 5.97 0.43
11 38 5.49 0.43
12 37 6.44 0.42
13 36 6.04 0.43
14 35 5.97 0.43
15 34 6.06 0.43
16 33 5.79 0.42
17 32 5.96 0.43
18 31 5.92 0.41
19 30 5.46 0.42
20 29 6.36 0.41
21 28 6.24 0.41
22 27 5.92 0.43
23 26 5.48 0.43
24 25 6.17 0.42
25 24 6.36 0.43
26 23 5.32 0.42
27 22 6.62 0.43
28 21 6.93 0.41
29 20 6.1 0.43
30 19 6.38 0.42
31 18 5.2 0.42
32 17 5.62 0.41
33 16 6.0 0.43
34 15 5.5 0.45
35 14 4.87 0.41
36 13 6.56 0.42
37 12 6.91 0.42
38 11 4.09 0.43
39 10 7.0 0.42
40 9 6.21 0.41
41 8 7.03 0.43
42 7 6.45 0.43
43 6 5.19 0.42
44 5 6.1 0.43
45 4 5.04 0.41
46 3 6.8 0.44
47 2 4.47 0.37
48 1 6.39 0.43
